\ This file has been generated by DOcplex
\ ENCODING=ISO-8859-1
\Problem name: random_problem.lp

Minimize
 obj: 814 x0 + 407 x1 + 840 x2 + 420 x3 + 1004 x4 + 502 x5 + [ 976 x0^2
      + 976 x0*x1 - 32 x0*x2 - 16 x0*x3 + 1728 x0*x4 + 864 x0*x5 + 244 x1^2
      - 16 x1*x2 - 8 x1*x3 + 864 x1*x4 + 432 x1*x5 + 3904 x2^2 + 3904 x2*x3
      + 128 x2*x4 + 64 x2*x5 + 976 x3^2 + 64 x3*x4 + 32 x3*x5 + 2160 x4^2
      + 2160 x4*x5 + 540 x5^2 ]/2
Subject To
 c0: 2 x0 + x1 + 2 x2 + x3 + 2 x4 + x5 = 3

Bounds
 0 <= x0 <= 1
 0 <= x1 <= 1
 0 <= x2 <= 1
 0 <= x3 <= 1
 0 <= x4 <= 1
 0 <= x5 <= 1

Binaries
 x0 x1 x2 x3 x4 x5
End
